c SAT Generator for power-law distributed variable frequencies
c -g u -v 20 -c 91 -k 3 -p 2.750000 -b 3.200000 -f /home/schmidt/Devel/ni-kop-sat/data/ensemble/ruf20-91/ruf20-91-31 -u 1 -U 1 -s 1496609657
p cnf 20 91
-2 -11 -13 0
16 17 -20 0
-10 -14 17 0
7 8 16 0
-5 -11 -14 0
-1 12 19 0
8 16 -17 0
-4 -5 14 0
-5 -8 -19 0
-3 11 -18 0
-9 -11 19 0
5 13 -16 0
4 5 6 0
7 -11 -19 0
6 -9 -11 0
-3 8 13 0
2 3 -20 0
12 17 -19 0
2 -4 -12 0
3 -9 -12 0
-9 -14 -20 0
3 -9 17 0
-7 -10 -11 0
6 9 -18 0
-4 9 -18 0
2 16 17 0
-10 -15 17 0
-15 19 -20 0
-12 17 19 0
16 17 18 0
8 -17 18 0
12 -16 17 0
-5 17 -20 0
4 10 16 0
-1 2 -6 0
4 -5 -14 0
4 13 -16 0
12 -13 16 0
-6 15 16 0
1 -3 7 0
2 -3 -7 0
-9 -14 18 0
-2 14 15 0
9 13 15 0
1 11 -20 0
-4 -8 12 0
-5 6 19 0
-1 -6 -20 0
-4 7 -12 0
-7 8 9 0
9 11 18 0
10 -11 -14 0
3 -7 -14 0
-11 13 16 0
-5 13 -15 0
2 -6 19 0
-9 -14 -16 0
-4 16 -20 0
-6 14 20 0
14 16 20 0
-2 -12 -20 0
2 5 6 0
-14 15 19 0
-6 8 15 0
5 -11 18 0
-8 13 14 0
-1 -2 18 0
1 -5 -17 0
-12 -17 -20 0
1 10 -20 0
2 5 8 0
2 -8 -11 0
-1 -7 -13 0
-3 -7 8 0
-3 -11 -18 0
4 -7 11 0
5 9 -17 0
-5 -14 -20 0
3 -8 -16 0
-12 -13 -15 0
1 -5 12 0
-3 4 10 0
1 12 -13 0
2 7 -13 0
-1 -14 -17 0
-3 -13 14 0
-8 -9 -18 0
1 5 -7 0
-1 9 -11 0
4 18 -20 0
4 12 19 0
